letting n =  10
letting blocks =  [[1, 2], [1, 3], [1, 4], [2, 3], [2, 7], [2, 8], [3, 3], [3, 5], [3, 9], [3, 10], [4, 3], [4, 8], [5, 2], [5, 6], [5, 10], [6, 3], [6, 9], [7, 9], [8, 3], [8, 4], [8, 5], [9, 6], [9, 7], [10, 1], [10, 4], [10, 9]]
